; Ω-落尘AGI CCC结构定理 Z3 反例验证 v4.1.0 - 白皮书v2.0 第3.2节
; 验证：CDL范畴满足笛卡尔闭范畴(CCC)结构
; 方法：有限模型反例验证，检查 CCC 公理无矛盾（unsat 表示无反例）

(set-logic QF_NIA)

; 完备格 Ω=[0,M] 上的对象
(declare-const M Int)
(declare-const x Int)
(declare-const y Int)
(declare-const z Int)

; 边界约束
(assert (> M 0))
(assert (>= x 0))
(assert (<= x M))
(assert (>= y 0))
(assert (<= y M))
(assert (>= z 0))
(assert (<= z M))

; 终端对象：M
(define-fun terminal () Int M)

; 积对象：meet（下确界）
(define-fun product ((a Int) (b Int)) Int (ite (<= a b) a b))

; 指数对象：y^x = max(0, M - x + y)（简化模型）
(define-fun exponential ((a Int) (b Int)) Int 
  (ite (>= M a) 
    (ite (> (- M a) (- M b)) M (- M a))
    b))

; Δ 算子
(define-fun delta ((a Int) (b Int)) Int (ite (>= a b) (- a b) 0))

; ============================================================
; 验证1：终端对象性质 - 任意对象 <= 终端对象
(push)
(assert (> x terminal))
(check-sat)  ; 期望 unsat
(pop)

; ============================================================
; 验证2：积的投影性质 - product(x,y) <= x 且 product(x,y) <= y
(push)
(assert (> (product x y) x))
(check-sat)  ; 期望 unsat
(pop)

(push)
(assert (> (product x y) y))
(check-sat)  ; 期望 unsat
(pop)

; ============================================================
; 验证3：积的泛性质 - z <= x ∧ z <= y → z <= product(x,y)
(push)
(assert (and (<= z x) (<= z y) (> z (product x y))))
(check-sat)  ; 期望 unsat
(pop)

; ============================================================
; 验证4：积的交换律 - product(x,y) = product(y,x)
(push)
(assert (not (= (product x y) (product y x))))
(check-sat)  ; 期望 unsat
(pop)

; ============================================================
; 验证5：积的幂等律 - product(x,x) = x
(push)
(assert (not (= (product x x) x)))
(check-sat)  ; 期望 unsat
(pop)

; ============================================================
; 验证6：指数对象非负
(push)
(assert (< (exponential x y) 0))
(check-sat)  ; 期望 unsat
(pop)

; ============================================================
; 验证7：Δ 非负
(push)
(assert (< (delta x y) 0))
(check-sat)  ; 期望 unsat
(pop)

; ============================================================
; 验证8：Δ 与积的兼容性 - delta(product(x,y), x) = 0
(push)
(assert (not (= (delta (product x y) x) 0)))
(check-sat)  ; 期望 unsat
(pop)

(push)
(assert (not (= (delta (product x y) y) 0)))
(check-sat)  ; 期望 unsat
(pop)

; ============================================================
; 验证9：CCC 三大要素同时存在（无矛盾）
(push)
(assert (and 
  (<= x terminal)
  (<= (product x y) x)
  (<= (product x y) y)
  (>= (exponential x y) 0)
  (not (and 
    (<= x terminal)
    (<= (product x y) x)
    (<= (product x y) y)
    (>= (exponential x y) 0)))))
(check-sat)  ; 期望 unsat
(pop)

(exit)
